(set-logic QF_SLIA)
(declare-const result String)
(declare-const attack String)
(declare-const prefix RegLan)
(declare-const infix RegLan)
(declare-const postfix RegLan)
(declare-const postfixs String)

(assert (str.in_re attack (re.++ prefix ((_ re.loop 10000 10000) infix) postfix)))
(assert (= prefix 
     (re.++  (str.to_re "\x3b") (re.++  (str.to_re "\x56") (re.++  (str.to_re "\x69") (re.++  (str.to_re "\x64") (re.++  (str.to_re "\x65") (re.++  (str.to_re "\x6f") (re.++  (str.to_re "\x63") (re.++  (str.to_re "\x6f") (re.++  (str.to_re "\x6e")  (str.to_re "\x2d"))))))))))
))
(assert (= infix 
        (re.inter (re.+  (re.union  (str.to_re "\x5c\x2f")  (str.to_re "\x3b")) )  (re.++ (re.+  (re.union  (str.to_re "\x5c\x2f")  (str.to_re "\x3b")) ) (re.*  (str.to_re "\x20") )) (re.*  (str.to_re "\x20") ) )
))
(assert (= postfix 
        (re.inter  (re.inter  (re.++  (str.to_re "\x20") (re.*  (re.union (re.union (str.to_re "\t") (str.to_re "\n") (str.to_re "\r") (str.to_re " ")) (re.inter re.allchar (re.comp (re.union (str.to_re "\t") (str.to_re "\n") (str.to_re "\r") (str.to_re " "))))) )) (re.comp  (re.inter (re.*  (str.to_re "\x20") )  (re.++   (re.union (re.union (str.to_re "\t") (str.to_re "\n") (str.to_re "\r") (str.to_re " ")) (re.inter re.allchar (re.comp (re.union (str.to_re "\t") (str.to_re "\n") (str.to_re "\r") (str.to_re " "))))) (re.*   (re.union (re.union (str.to_re "\t") (str.to_re "\n") (str.to_re "\r") (str.to_re " ")) (re.inter re.allchar (re.comp (re.union (str.to_re "\t") (str.to_re "\n") (str.to_re "\r") (str.to_re " "))))) )))))  (re.inter  (re.++  (str.to_re "\x20") (re.*  (re.union (re.union (str.to_re "\t") (str.to_re "\n") (str.to_re "\r") (str.to_re " ")) (re.inter re.allchar (re.comp (re.union (str.to_re "\t") (str.to_re "\n") (str.to_re "\r") (str.to_re " "))))) )) (re.comp  (re.++  (re.inter (re.*  (str.to_re "\x20") )  (re.++   (re.union (re.union (str.to_re "\t") (str.to_re "\n") (str.to_re "\r") (str.to_re " ")) (re.inter re.allchar (re.comp (re.union (str.to_re "\t") (str.to_re "\n") (str.to_re "\r") (str.to_re " "))))) (re.*   (re.union (re.union (str.to_re "\t") (str.to_re "\n") (str.to_re "\r") (str.to_re " ")) (re.inter re.allchar (re.comp (re.union (str.to_re "\t") (str.to_re "\n") (str.to_re "\r") (str.to_re " "))))) )))  (re.union  (re.++  (str.to_re "\x42") (re.++  (str.to_re "\x75") (re.++  (str.to_re "\x69") (re.++  (str.to_re "\x6c")  (str.to_re "\x64")))))  (str.to_re "\x3b"))))) )
))
(assert (str.in_re postfixs postfix))
(assert (>= (str.len postfixs) 1))
(assert (= result (str.++ attack postfixs)))
(check-sat)
(get-model)